
  22    4
  10   10   10   10

   0   0   0   0   0   3 2 3 4 
   8  10  10  10  10   3 8 7 5 
   1  10  10  10  10   2 10 9 
   2  10  10  10  10   1 6 
   9  10  10  10  10   2 15 10 
   6  10  10  10  10   1 9 
   5  10  10  10  10   1 9 
  10  10  10  10  10   1 9 
   5  10  10  10  10   3 15 12 11 
  10  10  10  10  10   2 12 11 
   1  10  10  10  10   5 21 18 17 16 13 
   2  10  10  10  10   3 21 14 13 
   9  10  10  10  10   2 20 19 
  10  10  10  10  10   1 16 
   7  10  10  10  10   1 16 
   6  10  10  10  10   1 19 
   9  10  10  10  10   1 19 
   8  10  10  10  10   1 19 
   3  10  10  10  10   1 22
   2  10  10  10  10   1 22
   8  10  10  10  10   1 22
   0   0   0   0   0   0 
